
Min
6 x11 + 2 x12 + 6 x13 + 7 x14 + 4 x15 + 2 x16 + 5 x17 + 9 x18 + 
4 x21 + 9 x22 + 5 x23 + 3 x24 + 8 x25 + 5 x26 + 8 x27 + 2 x28 + 
5 x31 + 2 x32 + 1 x33 + 9 x34 + 7 x35 + 4 x36 + 3 x37 + 3 x38 + 
7 x41 + 6 x42 + 7 x43 + 3 x44 + 9 x45 + 2 x46 + 7 x47 + 1 x48 + 
2 x51 + 3 x52 + 9 x53 + 5 x54 + 7 x55 + 2 x56 + 6 x57 + 5 x58 + 
5 x61 + 5 x62 + 2 x63 + 2 x64 + 8 x65 + 1 x66 + 4 x67 + 3 x68 
Subject To
x11 + x21 + x31 + x41 + x51 + x61 = 35
x12 + x22 + x32 + x42 + x52 + x62 = 37
x13 + x23 + x33 + x43 + x53 + x63 = 22
x14 + x24 + x34 + x44 + x54 + x64 = 32
x15 + x25 + x35 + x45 + x55 + x65 = 41
x16 + x26 + x36 + x46 + x56 + x66 = 32
x17 + x27 + x37 + x47 + x57 + x67 = 43
x18 + x28 + x38 + x48 + x58 + x68 = 38
x11 + x12 + x13 + x14 + x15 + x16 + x17 + x18 <= 60
x21 + x22 + x23 + x24 + x25 + x26 + x27 + x28 <= 55
x31 + x32 + x33 + x34 + x35 + x36 + x37 + x38 <= 51
x41 + x42 + x43 + x44 + x45 + x46 + x47 + x48 <= 43
x51 + x52 + x53 + x54 + x55 + x56 + x57 + x58 <= 41
x61 + x62 + x63 + x64 + x65 + x66 + x67 + x68 <= 52
Bounds
x11 >= 0
x12 >= 0
x13 >= 0
x14 >= 0
x15 >= 0
x16 >= 0
x17 >= 0
x18 >= 0
x21 >= 0
x22 >= 0
x23 >= 0
x24 >= 0
x25 >= 0
x26 >= 0
x27 >= 0
x28 >= 0
x31 >= 0
x32 >= 0
x33 >= 0
x34 >= 0
x35 >= 0
x36 >= 0
x37 >= 0
x38 >= 0
x41 >= 0
x42 >= 0
x43 >= 0
x44 >= 0
x45 >= 0
x46 >= 0
x47 >= 0
x48 >= 0
x51 >= 0
x52 >= 0
x53 >= 0
x54 >= 0
x55 >= 0
x56 >= 0
x57 >= 0
x58 >= 0
x61 >= 0
x62 >= 0
x63 >= 0
x64 >= 0
x65 >= 0
x66 >= 0
x67 >= 0
x68 >= 0
End

